\ This file has been generated by DOcplex
\ ENCODING=ISO-8859-1
\Problem name: TSP

Minimize
 obj: 12.879103355086 x_0_1 + 48.667977416944 x_0_2 + 34.626256225127 x_0_3
      + 54.426923640420 x_0_4 + 52.740356013489 x_0_5 + 58.314165624106 x_0_6
      + 39.808323493440 x_0_7 + 62.583841917309 x_0_8 + 67.127832452146 x_0_9
      + 12.879103355086 x_1_0 + 43.249931235301 x_1_2 + 29.729783123376 x_1_3
      + 47.644087838710 x_1_4 + 41.546140317589 x_1_5 + 50.222197718486 x_1_6
      + 34.863116096710 x_1_7 + 49.966465515770 x_1_8 + 55.257565603953 x_1_9
      + 48.667977416944 x_2_0 + 43.249931235301 x_2_1 + 14.049614609139 x_2_3
      + 7.745171564178 x_2_4 + 67.917153047439 x_2_5 + 14.776336965375 x_2_6
      + 8.868604710089 x_2_7 + 46.750738310759 x_2_8 + 74.731978607920 x_2_9
      + 34.626256225127 x_3_0 + 29.729783123376 x_3_1 + 14.049614609139 x_3_2
      + 20.175516152055 x_3_4 + 59.636815929438 x_3_5 + 25.314813380552 x_3_6
      + 5.237773276131 x_3_7 + 46.500537012745 x_3_8 + 68.812846877569 x_3_9
      + 54.426923640420 x_4_0 + 47.644087838710 x_4_1 + 7.745171564178 x_4_2
      + 20.175516152055 x_4_3 + 67.617371858710 x_4_5 + 7.304620156460 x_4_6
      + 15.484209199623 x_4_7 + 42.556294663654 x_4_8 + 72.892672611164 x_4_9
      + 52.740356013489 x_5_0 + 41.546140317589 x_5_1 + 67.917153047439 x_5_2
      + 59.636815929438 x_5_3 + 67.617371858710 x_5_4 + 65.377518478265 x_5_6
      + 62.964326463247 x_5_7 + 37.112922022252 x_5_8 + 15.432205652196 x_5_9
      + 58.314165624106 x_6_0 + 50.222197718486 x_6_1 + 14.776336965375 x_6_2
      + 25.314813380552 x_6_3 + 7.304620156460 x_6_4 + 65.377518478265 x_6_5
      + 21.305268568145 x_6_7 + 37.221020404323 x_6_8 + 69.221550493829 x_6_9
      + 39.808323493440 x_7_0 + 34.863116096710 x_7_1 + 8.868604710089 x_7_2
      + 5.237773276131 x_7_3 + 15.484209199623 x_7_4 + 62.964326463247 x_7_5
      + 21.305268568145 x_7_6 + 46.707274889222 x_7_8 + 71.297028408603 x_7_9
      + 62.583841917309 x_8_0 + 49.966465515770 x_8_1 + 46.750738310759 x_8_2
      + 46.500537012745 x_8_3 + 42.556294663654 x_8_4 + 37.112922022252 x_8_5
      + 37.221020404323 x_8_6 + 46.707274889222 x_8_7 + 34.845950597611 x_8_9
      + 67.127832452146 x_9_0 + 55.257565603953 x_9_1 + 74.731978607920 x_9_2
      + 68.812846877569 x_9_3 + 72.892672611164 x_9_4 + 15.432205652196 x_9_5
      + 69.221550493829 x_9_6 + 71.297028408603 x_9_7 + 34.845950597611 x_9_8
Subject To
 out_0: x_0_1 + x_0_2 + x_0_3 + x_0_4 + x_0_5 + x_0_6 + x_0_7 + x_0_8 + x_0_9
         = 1
 in_0: x_1_0 + x_2_0 + x_3_0 + x_4_0 + x_5_0 + x_6_0 + x_7_0 + x_8_0 + x_9_0 = 
       1
 out_1: x_1_0 + x_1_2 + x_1_3 + x_1_4 + x_1_5 + x_1_6 + x_1_7 + x_1_8 + x_1_9
         = 1
 in_1: x_0_1 + x_2_1 + x_3_1 + x_4_1 + x_5_1 + x_6_1 + x_7_1 + x_8_1 + x_9_1 = 
       1
 out_2: x_2_0 + x_2_1 + x_2_3 + x_2_4 + x_2_5 + x_2_6 + x_2_7 + x_2_8 + x_2_9
         = 1
 in_2: x_0_2 + x_1_2 + x_3_2 + x_4_2 + x_5_2 + x_6_2 + x_7_2 + x_8_2 + x_9_2 = 
       1
 out_3: x_3_0 + x_3_1 + x_3_2 + x_3_4 + x_3_5 + x_3_6 + x_3_7 + x_3_8 + x_3_9
         = 1
 in_3: x_0_3 + x_1_3 + x_2_3 + x_4_3 + x_5_3 + x_6_3 + x_7_3 + x_8_3 + x_9_3 = 
       1
 out_4: x_4_0 + x_4_1 + x_4_2 + x_4_3 + x_4_5 + x_4_6 + x_4_7 + x_4_8 + x_4_9
         = 1
 in_4: x_0_4 + x_1_4 + x_2_4 + x_3_4 + x_5_4 + x_6_4 + x_7_4 + x_8_4 + x_9_4 = 
       1
 out_5: x_5_0 + x_5_1 + x_5_2 + x_5_3 + x_5_4 + x_5_6 + x_5_7 + x_5_8 + x_5_9
         = 1
 in_5: x_0_5 + x_1_5 + x_2_5 + x_3_5 + x_4_5 + x_6_5 + x_7_5 + x_8_5 + x_9_5 = 
       1
 out_6: x_6_0 + x_6_1 + x_6_2 + x_6_3 + x_6_4 + x_6_5 + x_6_7 + x_6_8 + x_6_9
         = 1
 in_6: x_0_6 + x_1_6 + x_2_6 + x_3_6 + x_4_6 + x_5_6 + x_7_6 + x_8_6 + x_9_6 = 
       1
 out_7: x_7_0 + x_7_1 + x_7_2 + x_7_3 + x_7_4 + x_7_5 + x_7_6 + x_7_8 + x_7_9
         = 1
 in_7: x_0_7 + x_1_7 + x_2_7 + x_3_7 + x_4_7 + x_5_7 + x_6_7 + x_8_7 + x_9_7 = 
       1
 out_8: x_8_0 + x_8_1 + x_8_2 + x_8_3 + x_8_4 + x_8_5 + x_8_6 + x_8_7 + x_8_9
         = 1
 in_8: x_0_8 + x_1_8 + x_2_8 + x_3_8 + x_4_8 + x_5_8 + x_6_8 + x_7_8 + x_9_8 = 
       1
 out_9: x_9_0 + x_9_1 + x_9_2 + x_9_3 + x_9_4 + x_9_5 + x_9_6 + x_9_7 + x_9_8
         = 1
 in_9: x_0_9 + x_1_9 + x_2_9 + x_3_9 + x_4_9 + x_5_9 + x_6_9 + x_7_9 + x_8_9 = 
       1
 order_(0,_1): x_0_1 = 1 -> d_0 - d_1 = -1
 order_(0,_2): x_0_2 = 1 -> d_0 - d_2 = -1
 order_(0,_3): x_0_3 = 1 -> d_0 - d_3 = -1
 order_(0,_4): x_0_4 = 1 -> d_0 - d_4 = -1
 order_(0,_5): x_0_5 = 1 -> d_0 - d_5 = -1
 order_(0,_6): x_0_6 = 1 -> d_0 - d_6 = -1
 order_(0,_7): x_0_7 = 1 -> d_0 - d_7 = -1
 order_(0,_8): x_0_8 = 1 -> d_0 - d_8 = -1
 order_(0,_9): x_0_9 = 1 -> d_0 - d_9 = -1
 order_(1,_2): x_1_2 = 1 -> d_1 - d_2 = -1
 order_(1,_3): x_1_3 = 1 -> d_1 - d_3 = -1
 order_(1,_4): x_1_4 = 1 -> d_1 - d_4 = -1
 order_(1,_5): x_1_5 = 1 -> d_1 - d_5 = -1
 order_(1,_6): x_1_6 = 1 -> d_1 - d_6 = -1
 order_(1,_7): x_1_7 = 1 -> d_1 - d_7 = -1
 order_(1,_8): x_1_8 = 1 -> d_1 - d_8 = -1
 order_(1,_9): x_1_9 = 1 -> d_1 - d_9 = -1
 order_(2,_1): x_2_1 = 1 -> d_2 - d_1 = -1
 order_(2,_3): x_2_3 = 1 -> d_2 - d_3 = -1
 order_(2,_4): x_2_4 = 1 -> d_2 - d_4 = -1
 order_(2,_5): x_2_5 = 1 -> d_2 - d_5 = -1
 order_(2,_6): x_2_6 = 1 -> d_2 - d_6 = -1
 order_(2,_7): x_2_7 = 1 -> d_2 - d_7 = -1
 order_(2,_8): x_2_8 = 1 -> d_2 - d_8 = -1
 order_(2,_9): x_2_9 = 1 -> d_2 - d_9 = -1
 order_(3,_1): x_3_1 = 1 -> d_3 - d_1 = -1
 order_(3,_2): x_3_2 = 1 -> d_3 - d_2 = -1
 order_(3,_4): x_3_4 = 1 -> d_3 - d_4 = -1
 order_(3,_5): x_3_5 = 1 -> d_3 - d_5 = -1
 order_(3,_6): x_3_6 = 1 -> d_3 - d_6 = -1
 order_(3,_7): x_3_7 = 1 -> d_3 - d_7 = -1
 order_(3,_8): x_3_8 = 1 -> d_3 - d_8 = -1
 order_(3,_9): x_3_9 = 1 -> d_3 - d_9 = -1
 order_(4,_1): x_4_1 = 1 -> d_4 - d_1 = -1
 order_(4,_2): x_4_2 = 1 -> d_4 - d_2 = -1
 order_(4,_3): x_4_3 = 1 -> d_4 - d_3 = -1
 order_(4,_5): x_4_5 = 1 -> d_4 - d_5 = -1
 order_(4,_6): x_4_6 = 1 -> d_4 - d_6 = -1
 order_(4,_7): x_4_7 = 1 -> d_4 - d_7 = -1
 order_(4,_8): x_4_8 = 1 -> d_4 - d_8 = -1
 order_(4,_9): x_4_9 = 1 -> d_4 - d_9 = -1
 order_(5,_1): x_5_1 = 1 -> d_5 - d_1 = -1
 order_(5,_2): x_5_2 = 1 -> d_5 - d_2 = -1
 order_(5,_3): x_5_3 = 1 -> d_5 - d_3 = -1
 order_(5,_4): x_5_4 = 1 -> d_5 - d_4 = -1
 order_(5,_6): x_5_6 = 1 -> d_5 - d_6 = -1
 order_(5,_7): x_5_7 = 1 -> d_5 - d_7 = -1
 order_(5,_8): x_5_8 = 1 -> d_5 - d_8 = -1
 order_(5,_9): x_5_9 = 1 -> d_5 - d_9 = -1
 order_(6,_1): x_6_1 = 1 -> d_6 - d_1 = -1
 order_(6,_2): x_6_2 = 1 -> d_6 - d_2 = -1
 order_(6,_3): x_6_3 = 1 -> d_6 - d_3 = -1
 order_(6,_4): x_6_4 = 1 -> d_6 - d_4 = -1
 order_(6,_5): x_6_5 = 1 -> d_6 - d_5 = -1
 order_(6,_7): x_6_7 = 1 -> d_6 - d_7 = -1
 order_(6,_8): x_6_8 = 1 -> d_6 - d_8 = -1
 order_(6,_9): x_6_9 = 1 -> d_6 - d_9 = -1
 order_(7,_1): x_7_1 = 1 -> d_7 - d_1 = -1
 order_(7,_2): x_7_2 = 1 -> d_7 - d_2 = -1
 order_(7,_3): x_7_3 = 1 -> d_7 - d_3 = -1
 order_(7,_4): x_7_4 = 1 -> d_7 - d_4 = -1
 order_(7,_5): x_7_5 = 1 -> d_7 - d_5 = -1
 order_(7,_6): x_7_6 = 1 -> d_7 - d_6 = -1
 order_(7,_8): x_7_8 = 1 -> d_7 - d_8 = -1
 order_(7,_9): x_7_9 = 1 -> d_7 - d_9 = -1
 order_(8,_1): x_8_1 = 1 -> d_8 - d_1 = -1
 order_(8,_2): x_8_2 = 1 -> d_8 - d_2 = -1
 order_(8,_3): x_8_3 = 1 -> d_8 - d_3 = -1
 order_(8,_4): x_8_4 = 1 -> d_8 - d_4 = -1
 order_(8,_5): x_8_5 = 1 -> d_8 - d_5 = -1
 order_(8,_6): x_8_6 = 1 -> d_8 - d_6 = -1
 order_(8,_7): x_8_7 = 1 -> d_8 - d_7 = -1
 order_(8,_9): x_8_9 = 1 -> d_8 - d_9 = -1
 order_(9,_1): x_9_1 = 1 -> d_9 - d_1 = -1
 order_(9,_2): x_9_2 = 1 -> d_9 - d_2 = -1
 order_(9,_3): x_9_3 = 1 -> d_9 - d_3 = -1
 order_(9,_4): x_9_4 = 1 -> d_9 - d_4 = -1
 order_(9,_5): x_9_5 = 1 -> d_9 - d_5 = -1
 order_(9,_6): x_9_6 = 1 -> d_9 - d_6 = -1
 order_(9,_7): x_9_7 = 1 -> d_9 - d_7 = -1
 order_(9,_8): x_9_8 = 1 -> d_9 - d_8 = -1

Bounds
 0 <= x_0_1 <= 1
 0 <= x_0_2 <= 1
 0 <= x_0_3 <= 1
 0 <= x_0_4 <= 1
 0 <= x_0_5 <= 1
 0 <= x_0_6 <= 1
 0 <= x_0_7 <= 1
 0 <= x_0_8 <= 1
 0 <= x_0_9 <= 1
 0 <= x_1_0 <= 1
 0 <= x_1_2 <= 1
 0 <= x_1_3 <= 1
 0 <= x_1_4 <= 1
 0 <= x_1_5 <= 1
 0 <= x_1_6 <= 1
 0 <= x_1_7 <= 1
 0 <= x_1_8 <= 1
 0 <= x_1_9 <= 1
 0 <= x_2_0 <= 1
 0 <= x_2_1 <= 1
 0 <= x_2_3 <= 1
 0 <= x_2_4 <= 1
 0 <= x_2_5 <= 1
 0 <= x_2_6 <= 1
 0 <= x_2_7 <= 1
 0 <= x_2_8 <= 1
 0 <= x_2_9 <= 1
 0 <= x_3_0 <= 1
 0 <= x_3_1 <= 1
 0 <= x_3_2 <= 1
 0 <= x_3_4 <= 1
 0 <= x_3_5 <= 1
 0 <= x_3_6 <= 1
 0 <= x_3_7 <= 1
 0 <= x_3_8 <= 1
 0 <= x_3_9 <= 1
 0 <= x_4_0 <= 1
 0 <= x_4_1 <= 1
 0 <= x_4_2 <= 1
 0 <= x_4_3 <= 1
 0 <= x_4_5 <= 1
 0 <= x_4_6 <= 1
 0 <= x_4_7 <= 1
 0 <= x_4_8 <= 1
 0 <= x_4_9 <= 1
 0 <= x_5_0 <= 1
 0 <= x_5_1 <= 1
 0 <= x_5_2 <= 1
 0 <= x_5_3 <= 1
 0 <= x_5_4 <= 1
 0 <= x_5_6 <= 1
 0 <= x_5_7 <= 1
 0 <= x_5_8 <= 1
 0 <= x_5_9 <= 1
 0 <= x_6_0 <= 1
 0 <= x_6_1 <= 1
 0 <= x_6_2 <= 1
 0 <= x_6_3 <= 1
 0 <= x_6_4 <= 1
 0 <= x_6_5 <= 1
 0 <= x_6_7 <= 1
 0 <= x_6_8 <= 1
 0 <= x_6_9 <= 1
 0 <= x_7_0 <= 1
 0 <= x_7_1 <= 1
 0 <= x_7_2 <= 1
 0 <= x_7_3 <= 1
 0 <= x_7_4 <= 1
 0 <= x_7_5 <= 1
 0 <= x_7_6 <= 1
 0 <= x_7_8 <= 1
 0 <= x_7_9 <= 1
 0 <= x_8_0 <= 1
 0 <= x_8_1 <= 1
 0 <= x_8_2 <= 1
 0 <= x_8_3 <= 1
 0 <= x_8_4 <= 1
 0 <= x_8_5 <= 1
 0 <= x_8_6 <= 1
 0 <= x_8_7 <= 1
 0 <= x_8_9 <= 1
 0 <= x_9_0 <= 1
 0 <= x_9_1 <= 1
 0 <= x_9_2 <= 1
 0 <= x_9_3 <= 1
 0 <= x_9_4 <= 1
 0 <= x_9_5 <= 1
 0 <= x_9_6 <= 1
 0 <= x_9_7 <= 1
 0 <= x_9_8 <= 1

Binaries
 x_0_1 x_0_2 x_0_3 x_0_4 x_0_5 x_0_6 x_0_7 x_0_8 x_0_9 x_1_0 x_1_2 x_1_3 x_1_4
 x_1_5 x_1_6 x_1_7 x_1_8 x_1_9 x_2_0 x_2_1 x_2_3 x_2_4 x_2_5 x_2_6 x_2_7 x_2_8
 x_2_9 x_3_0 x_3_1 x_3_2 x_3_4 x_3_5 x_3_6 x_3_7 x_3_8 x_3_9 x_4_0 x_4_1 x_4_2
 x_4_3 x_4_5 x_4_6 x_4_7 x_4_8 x_4_9 x_5_0 x_5_1 x_5_2 x_5_3 x_5_4 x_5_6 x_5_7
 x_5_8 x_5_9 x_6_0 x_6_1 x_6_2 x_6_3 x_6_4 x_6_5 x_6_7 x_6_8 x_6_9 x_7_0 x_7_1
 x_7_2 x_7_3 x_7_4 x_7_5 x_7_6 x_7_8 x_7_9 x_8_0 x_8_1 x_8_2 x_8_3 x_8_4 x_8_5
 x_8_6 x_8_7 x_8_9 x_9_0 x_9_1 x_9_2 x_9_3 x_9_4 x_9_5 x_9_6 x_9_7 x_9_8
End
