\ This file has been generated by DOcplex
\ ENCODING=ISO-8859-1
\Problem name: TSP

Minimize
 obj: 59.521410010829 x_0_1 + 50.990375233097 x_0_2 + 27.606113413095 x_0_3
      + 61.512974423384 x_0_4 + 42.164507148665 x_0_5 + 68.269029910709 x_0_6
      + 55.072457812127 x_0_7 + 81.197655937643 x_0_8 + 10.789853867434 x_0_9
      + 59.521410010829 x_1_0 + 66.406970983478 x_1_2 + 75.157917852697 x_1_3
      + 90.371685228337 x_1_4 + 17.652824230345 x_1_5 + 9.698556578271 x_1_6
      + 35.667799484403 x_1_7 + 28.333997357016 x_1_8 + 67.826935736692 x_1_9
      + 50.990375233097 x_2_0 + 66.406970983478 x_2_1 + 35.050507830474 x_2_3
      + 24.840744541734 x_2_4 + 53.741651576331 x_2_5 + 75.600992270766 x_2_6
      + 86.602875293116 x_2_7 + 94.738862489659 x_2_8 + 60.532600866579 x_2_9
      + 27.606113413095 x_3_0 + 75.157917852697 x_3_1 + 35.050507830474 x_3_2
      + 36.162053058303 x_3_4 + 57.909424913205 x_3_5 + 84.773938847111 x_3_6
      + 80.200470839009 x_3_7 + 100.944264882181 x_3_8 + 32.709514400409 x_3_9
      + 61.512974423384 x_4_0 + 90.371685228337 x_4_1 + 24.840744541734 x_4_2
      + 36.162053058303 x_4_3 + 76.320911763480 x_4_5 + 99.770814314962 x_4_6
      + 106.782214577946 x_4_7 + 118.600028162045 x_4_8 + 68.453433464125 x_4_9
      + 42.164507148665 x_5_0 + 17.652824230345 x_5_1 + 53.741651576331 x_5_2
      + 57.909424913205 x_5_3 + 76.320911763480 x_5_4 + 27.018626600308 x_5_6
      + 35.169273889936 x_5_7 + 43.445491310648 x_5_8 + 50.984694936492 x_5_9
      + 68.269029910709 x_6_0 + 9.698556578271 x_6_1 + 75.600992270766 x_6_2
      + 84.773938847111 x_6_3 + 99.770814314962 x_6_4 + 27.018626600308 x_6_5
      + 36.516677851075 x_6_7 + 19.562980937158 x_6_8 + 76.082421895297 x_6_9
      + 55.072457812127 x_7_0 + 35.667799484403 x_7_1 + 86.602875293116 x_7_2
      + 80.200470839009 x_7_3 + 106.782214577946 x_7_4 + 35.169273889936 x_7_5
      + 36.516677851075 x_7_6 + 35.668315931891 x_7_8 + 58.125531504118 x_7_9
      + 81.197655937643 x_8_0 + 28.333997357016 x_8_1 + 94.738862489659 x_8_2
      + 100.944264882181 x_8_3 + 118.600028162045 x_8_4 + 43.445491310648 x_8_5
      + 19.562980937158 x_8_6 + 35.668315931891 x_8_7 + 87.401859127909 x_8_9
      + 10.789853867434 x_9_0 + 67.826935736692 x_9_1 + 60.532600866579 x_9_2
      + 32.709514400409 x_9_3 + 68.453433464125 x_9_4 + 50.984694936492 x_9_5
      + 76.082421895297 x_9_6 + 58.125531504118 x_9_7 + 87.401859127909 x_9_8
Subject To
 out_0: x_0_1 + x_0_2 + x_0_3 + x_0_4 + x_0_5 + x_0_6 + x_0_7 + x_0_8 + x_0_9
         = 1
 in_0: x_1_0 + x_2_0 + x_3_0 + x_4_0 + x_5_0 + x_6_0 + x_7_0 + x_8_0 + x_9_0 = 
       1
 out_1: x_1_0 + x_1_2 + x_1_3 + x_1_4 + x_1_5 + x_1_6 + x_1_7 + x_1_8 + x_1_9
         = 1
 in_1: x_0_1 + x_2_1 + x_3_1 + x_4_1 + x_5_1 + x_6_1 + x_7_1 + x_8_1 + x_9_1 = 
       1
 out_2: x_2_0 + x_2_1 + x_2_3 + x_2_4 + x_2_5 + x_2_6 + x_2_7 + x_2_8 + x_2_9
         = 1
 in_2: x_0_2 + x_1_2 + x_3_2 + x_4_2 + x_5_2 + x_6_2 + x_7_2 + x_8_2 + x_9_2 = 
       1
 out_3: x_3_0 + x_3_1 + x_3_2 + x_3_4 + x_3_5 + x_3_6 + x_3_7 + x_3_8 + x_3_9
         = 1
 in_3: x_0_3 + x_1_3 + x_2_3 + x_4_3 + x_5_3 + x_6_3 + x_7_3 + x_8_3 + x_9_3 = 
       1
 out_4: x_4_0 + x_4_1 + x_4_2 + x_4_3 + x_4_5 + x_4_6 + x_4_7 + x_4_8 + x_4_9
         = 1
 in_4: x_0_4 + x_1_4 + x_2_4 + x_3_4 + x_5_4 + x_6_4 + x_7_4 + x_8_4 + x_9_4 = 
       1
 out_5: x_5_0 + x_5_1 + x_5_2 + x_5_3 + x_5_4 + x_5_6 + x_5_7 + x_5_8 + x_5_9
         = 1
 in_5: x_0_5 + x_1_5 + x_2_5 + x_3_5 + x_4_5 + x_6_5 + x_7_5 + x_8_5 + x_9_5 = 
       1
 out_6: x_6_0 + x_6_1 + x_6_2 + x_6_3 + x_6_4 + x_6_5 + x_6_7 + x_6_8 + x_6_9
         = 1
 in_6: x_0_6 + x_1_6 + x_2_6 + x_3_6 + x_4_6 + x_5_6 + x_7_6 + x_8_6 + x_9_6 = 
       1
 out_7: x_7_0 + x_7_1 + x_7_2 + x_7_3 + x_7_4 + x_7_5 + x_7_6 + x_7_8 + x_7_9
         = 1
 in_7: x_0_7 + x_1_7 + x_2_7 + x_3_7 + x_4_7 + x_5_7 + x_6_7 + x_8_7 + x_9_7 = 
       1
 out_8: x_8_0 + x_8_1 + x_8_2 + x_8_3 + x_8_4 + x_8_5 + x_8_6 + x_8_7 + x_8_9
         = 1
 in_8: x_0_8 + x_1_8 + x_2_8 + x_3_8 + x_4_8 + x_5_8 + x_6_8 + x_7_8 + x_9_8 = 
       1
 out_9: x_9_0 + x_9_1 + x_9_2 + x_9_3 + x_9_4 + x_9_5 + x_9_6 + x_9_7 + x_9_8
         = 1
 in_9: x_0_9 + x_1_9 + x_2_9 + x_3_9 + x_4_9 + x_5_9 + x_6_9 + x_7_9 + x_8_9 = 
       1
 order_(0,_1): x_0_1 = 1 -> d_0 - d_1 = -1
 order_(0,_2): x_0_2 = 1 -> d_0 - d_2 = -1
 order_(0,_3): x_0_3 = 1 -> d_0 - d_3 = -1
 order_(0,_4): x_0_4 = 1 -> d_0 - d_4 = -1
 order_(0,_5): x_0_5 = 1 -> d_0 - d_5 = -1
 order_(0,_6): x_0_6 = 1 -> d_0 - d_6 = -1
 order_(0,_7): x_0_7 = 1 -> d_0 - d_7 = -1
 order_(0,_8): x_0_8 = 1 -> d_0 - d_8 = -1
 order_(0,_9): x_0_9 = 1 -> d_0 - d_9 = -1
 order_(1,_2): x_1_2 = 1 -> d_1 - d_2 = -1
 order_(1,_3): x_1_3 = 1 -> d_1 - d_3 = -1
 order_(1,_4): x_1_4 = 1 -> d_1 - d_4 = -1
 order_(1,_5): x_1_5 = 1 -> d_1 - d_5 = -1
 order_(1,_6): x_1_6 = 1 -> d_1 - d_6 = -1
 order_(1,_7): x_1_7 = 1 -> d_1 - d_7 = -1
 order_(1,_8): x_1_8 = 1 -> d_1 - d_8 = -1
 order_(1,_9): x_1_9 = 1 -> d_1 - d_9 = -1
 order_(2,_1): x_2_1 = 1 -> d_2 - d_1 = -1
 order_(2,_3): x_2_3 = 1 -> d_2 - d_3 = -1
 order_(2,_4): x_2_4 = 1 -> d_2 - d_4 = -1
 order_(2,_5): x_2_5 = 1 -> d_2 - d_5 = -1
 order_(2,_6): x_2_6 = 1 -> d_2 - d_6 = -1
 order_(2,_7): x_2_7 = 1 -> d_2 - d_7 = -1
 order_(2,_8): x_2_8 = 1 -> d_2 - d_8 = -1
 order_(2,_9): x_2_9 = 1 -> d_2 - d_9 = -1
 order_(3,_1): x_3_1 = 1 -> d_3 - d_1 = -1
 order_(3,_2): x_3_2 = 1 -> d_3 - d_2 = -1
 order_(3,_4): x_3_4 = 1 -> d_3 - d_4 = -1
 order_(3,_5): x_3_5 = 1 -> d_3 - d_5 = -1
 order_(3,_6): x_3_6 = 1 -> d_3 - d_6 = -1
 order_(3,_7): x_3_7 = 1 -> d_3 - d_7 = -1
 order_(3,_8): x_3_8 = 1 -> d_3 - d_8 = -1
 order_(3,_9): x_3_9 = 1 -> d_3 - d_9 = -1
 order_(4,_1): x_4_1 = 1 -> d_4 - d_1 = -1
 order_(4,_2): x_4_2 = 1 -> d_4 - d_2 = -1
 order_(4,_3): x_4_3 = 1 -> d_4 - d_3 = -1
 order_(4,_5): x_4_5 = 1 -> d_4 - d_5 = -1
 order_(4,_6): x_4_6 = 1 -> d_4 - d_6 = -1
 order_(4,_7): x_4_7 = 1 -> d_4 - d_7 = -1
 order_(4,_8): x_4_8 = 1 -> d_4 - d_8 = -1
 order_(4,_9): x_4_9 = 1 -> d_4 - d_9 = -1
 order_(5,_1): x_5_1 = 1 -> d_5 - d_1 = -1
 order_(5,_2): x_5_2 = 1 -> d_5 - d_2 = -1
 order_(5,_3): x_5_3 = 1 -> d_5 - d_3 = -1
 order_(5,_4): x_5_4 = 1 -> d_5 - d_4 = -1
 order_(5,_6): x_5_6 = 1 -> d_5 - d_6 = -1
 order_(5,_7): x_5_7 = 1 -> d_5 - d_7 = -1
 order_(5,_8): x_5_8 = 1 -> d_5 - d_8 = -1
 order_(5,_9): x_5_9 = 1 -> d_5 - d_9 = -1
 order_(6,_1): x_6_1 = 1 -> d_6 - d_1 = -1
 order_(6,_2): x_6_2 = 1 -> d_6 - d_2 = -1
 order_(6,_3): x_6_3 = 1 -> d_6 - d_3 = -1
 order_(6,_4): x_6_4 = 1 -> d_6 - d_4 = -1
 order_(6,_5): x_6_5 = 1 -> d_6 - d_5 = -1
 order_(6,_7): x_6_7 = 1 -> d_6 - d_7 = -1
 order_(6,_8): x_6_8 = 1 -> d_6 - d_8 = -1
 order_(6,_9): x_6_9 = 1 -> d_6 - d_9 = -1
 order_(7,_1): x_7_1 = 1 -> d_7 - d_1 = -1
 order_(7,_2): x_7_2 = 1 -> d_7 - d_2 = -1
 order_(7,_3): x_7_3 = 1 -> d_7 - d_3 = -1
 order_(7,_4): x_7_4 = 1 -> d_7 - d_4 = -1
 order_(7,_5): x_7_5 = 1 -> d_7 - d_5 = -1
 order_(7,_6): x_7_6 = 1 -> d_7 - d_6 = -1
 order_(7,_8): x_7_8 = 1 -> d_7 - d_8 = -1
 order_(7,_9): x_7_9 = 1 -> d_7 - d_9 = -1
 order_(8,_1): x_8_1 = 1 -> d_8 - d_1 = -1
 order_(8,_2): x_8_2 = 1 -> d_8 - d_2 = -1
 order_(8,_3): x_8_3 = 1 -> d_8 - d_3 = -1
 order_(8,_4): x_8_4 = 1 -> d_8 - d_4 = -1
 order_(8,_5): x_8_5 = 1 -> d_8 - d_5 = -1
 order_(8,_6): x_8_6 = 1 -> d_8 - d_6 = -1
 order_(8,_7): x_8_7 = 1 -> d_8 - d_7 = -1
 order_(8,_9): x_8_9 = 1 -> d_8 - d_9 = -1
 order_(9,_1): x_9_1 = 1 -> d_9 - d_1 = -1
 order_(9,_2): x_9_2 = 1 -> d_9 - d_2 = -1
 order_(9,_3): x_9_3 = 1 -> d_9 - d_3 = -1
 order_(9,_4): x_9_4 = 1 -> d_9 - d_4 = -1
 order_(9,_5): x_9_5 = 1 -> d_9 - d_5 = -1
 order_(9,_6): x_9_6 = 1 -> d_9 - d_6 = -1
 order_(9,_7): x_9_7 = 1 -> d_9 - d_7 = -1
 order_(9,_8): x_9_8 = 1 -> d_9 - d_8 = -1

Bounds
 0 <= x_0_1 <= 1
 0 <= x_0_2 <= 1
 0 <= x_0_3 <= 1
 0 <= x_0_4 <= 1
 0 <= x_0_5 <= 1
 0 <= x_0_6 <= 1
 0 <= x_0_7 <= 1
 0 <= x_0_8 <= 1
 0 <= x_0_9 <= 1
 0 <= x_1_0 <= 1
 0 <= x_1_2 <= 1
 0 <= x_1_3 <= 1
 0 <= x_1_4 <= 1
 0 <= x_1_5 <= 1
 0 <= x_1_6 <= 1
 0 <= x_1_7 <= 1
 0 <= x_1_8 <= 1
 0 <= x_1_9 <= 1
 0 <= x_2_0 <= 1
 0 <= x_2_1 <= 1
 0 <= x_2_3 <= 1
 0 <= x_2_4 <= 1
 0 <= x_2_5 <= 1
 0 <= x_2_6 <= 1
 0 <= x_2_7 <= 1
 0 <= x_2_8 <= 1
 0 <= x_2_9 <= 1
 0 <= x_3_0 <= 1
 0 <= x_3_1 <= 1
 0 <= x_3_2 <= 1
 0 <= x_3_4 <= 1
 0 <= x_3_5 <= 1
 0 <= x_3_6 <= 1
 0 <= x_3_7 <= 1
 0 <= x_3_8 <= 1
 0 <= x_3_9 <= 1
 0 <= x_4_0 <= 1
 0 <= x_4_1 <= 1
 0 <= x_4_2 <= 1
 0 <= x_4_3 <= 1
 0 <= x_4_5 <= 1
 0 <= x_4_6 <= 1
 0 <= x_4_7 <= 1
 0 <= x_4_8 <= 1
 0 <= x_4_9 <= 1
 0 <= x_5_0 <= 1
 0 <= x_5_1 <= 1
 0 <= x_5_2 <= 1
 0 <= x_5_3 <= 1
 0 <= x_5_4 <= 1
 0 <= x_5_6 <= 1
 0 <= x_5_7 <= 1
 0 <= x_5_8 <= 1
 0 <= x_5_9 <= 1
 0 <= x_6_0 <= 1
 0 <= x_6_1 <= 1
 0 <= x_6_2 <= 1
 0 <= x_6_3 <= 1
 0 <= x_6_4 <= 1
 0 <= x_6_5 <= 1
 0 <= x_6_7 <= 1
 0 <= x_6_8 <= 1
 0 <= x_6_9 <= 1
 0 <= x_7_0 <= 1
 0 <= x_7_1 <= 1
 0 <= x_7_2 <= 1
 0 <= x_7_3 <= 1
 0 <= x_7_4 <= 1
 0 <= x_7_5 <= 1
 0 <= x_7_6 <= 1
 0 <= x_7_8 <= 1
 0 <= x_7_9 <= 1
 0 <= x_8_0 <= 1
 0 <= x_8_1 <= 1
 0 <= x_8_2 <= 1
 0 <= x_8_3 <= 1
 0 <= x_8_4 <= 1
 0 <= x_8_5 <= 1
 0 <= x_8_6 <= 1
 0 <= x_8_7 <= 1
 0 <= x_8_9 <= 1
 0 <= x_9_0 <= 1
 0 <= x_9_1 <= 1
 0 <= x_9_2 <= 1
 0 <= x_9_3 <= 1
 0 <= x_9_4 <= 1
 0 <= x_9_5 <= 1
 0 <= x_9_6 <= 1
 0 <= x_9_7 <= 1
 0 <= x_9_8 <= 1

Binaries
 x_0_1 x_0_2 x_0_3 x_0_4 x_0_5 x_0_6 x_0_7 x_0_8 x_0_9 x_1_0 x_1_2 x_1_3 x_1_4
 x_1_5 x_1_6 x_1_7 x_1_8 x_1_9 x_2_0 x_2_1 x_2_3 x_2_4 x_2_5 x_2_6 x_2_7 x_2_8
 x_2_9 x_3_0 x_3_1 x_3_2 x_3_4 x_3_5 x_3_6 x_3_7 x_3_8 x_3_9 x_4_0 x_4_1 x_4_2
 x_4_3 x_4_5 x_4_6 x_4_7 x_4_8 x_4_9 x_5_0 x_5_1 x_5_2 x_5_3 x_5_4 x_5_6 x_5_7
 x_5_8 x_5_9 x_6_0 x_6_1 x_6_2 x_6_3 x_6_4 x_6_5 x_6_7 x_6_8 x_6_9 x_7_0 x_7_1
 x_7_2 x_7_3 x_7_4 x_7_5 x_7_6 x_7_8 x_7_9 x_8_0 x_8_1 x_8_2 x_8_3 x_8_4 x_8_5
 x_8_6 x_8_7 x_8_9 x_9_0 x_9_1 x_9_2 x_9_3 x_9_4 x_9_5 x_9_6 x_9_7 x_9_8
End
