\ This file has been generated by DOcplex
\ ENCODING=ISO-8859-1
\Problem name: TSP

Minimize
 obj: 26.271166293931 x_0_1 + 69.372449731033 x_0_2 + 43.131228272744 x_0_3
      + 61.016865332381 x_0_4 + 23.045350093964 x_0_5 + 69.851034382878 x_0_6
      + 39.270683431446 x_0_7 + 60.707304840951 x_0_8 + 46.266459572187 x_0_9
      + 26.271166293931 x_1_0 + 69.182194456007 x_1_2 + 26.218326459356 x_1_3
      + 36.882965384001 x_1_4 + 29.995645068413 x_1_5 + 64.371815088815 x_1_6
      + 14.039482370072 x_1_7 + 69.425309383225 x_1_8 + 62.600291054281 x_1_9
      + 69.372449731033 x_2_0 + 69.182194456007 x_2_1 + 48.633271674158 x_2_3
      + 66.456643916967 x_2_4 + 90.549518438874 x_2_5 + 13.980933305108 x_2_6
      + 78.595154068916 x_2_7 + 23.464819684694 x_2_8 + 43.469029167186 x_2_9
      + 43.131228272744 x_3_0 + 26.218326459356 x_3_1 + 48.633271674158 x_3_2
      + 23.407208338252 x_3_4 + 55.214078915042 x_3_5 + 40.671489183517 x_3_6
      + 31.189739770447 x_3_7 + 56.506739604988 x_3_8 + 58.630177157119 x_3_9
      + 61.016865332381 x_4_0 + 36.882965384001 x_4_1 + 66.456643916967 x_4_2
      + 23.407208338252 x_4_3 + 66.112641914609 x_4_5 + 55.235624268533 x_4_6
      + 31.696577861382 x_4_7 + 78.429851310059 x_4_8 + 82.027154514789 x_4_9
      + 23.045350093964 x_5_0 + 29.995645068413 x_5_1 + 90.549518438874 x_5_2
      + 55.214078915042 x_5_3 + 66.112641914609 x_5_4 + 89.097506754535 x_5_6
      + 36.222823437027 x_5_7 + 83.613735774472 x_5_8 + 69.018761281279 x_5_9
      + 69.851034382878 x_6_0 + 64.371815088815 x_6_1 + 13.980933305108 x_6_2
      + 40.671489183517 x_6_3 + 55.235624268533 x_6_4 + 89.097506754535 x_6_5
      + 71.771369679287 x_6_7 + 35.842017390431 x_6_8 + 53.078818077988 x_6_9
      + 39.270683431446 x_7_0 + 14.039482370072 x_7_1 + 78.595154068916 x_7_2
      + 31.189739770447 x_7_3 + 31.696577861382 x_7_4 + 36.222823437027 x_7_5
      + 71.771369679287 x_7_6 + 81.605959502091 x_7_8 + 76.299899468031 x_7_9
      + 60.707304840951 x_8_0 + 69.425309383225 x_8_1 + 23.464819684694 x_8_2
      + 56.506739604988 x_8_3 + 78.429851310059 x_8_4 + 83.613735774472 x_8_5
      + 35.842017390431 x_8_6 + 81.605959502091 x_8_7 + 22.390917687246 x_8_9
      + 46.266459572187 x_9_0 + 62.600291054281 x_9_1 + 43.469029167186 x_9_2
      + 58.630177157119 x_9_3 + 82.027154514789 x_9_4 + 69.018761281279 x_9_5
      + 53.078818077988 x_9_6 + 76.299899468031 x_9_7 + 22.390917687246 x_9_8
Subject To
 out_0: x_0_1 + x_0_2 + x_0_3 + x_0_4 + x_0_5 + x_0_6 + x_0_7 + x_0_8 + x_0_9
         = 1
 in_0: x_1_0 + x_2_0 + x_3_0 + x_4_0 + x_5_0 + x_6_0 + x_7_0 + x_8_0 + x_9_0 = 
       1
 out_1: x_1_0 + x_1_2 + x_1_3 + x_1_4 + x_1_5 + x_1_6 + x_1_7 + x_1_8 + x_1_9
         = 1
 in_1: x_0_1 + x_2_1 + x_3_1 + x_4_1 + x_5_1 + x_6_1 + x_7_1 + x_8_1 + x_9_1 = 
       1
 out_2: x_2_0 + x_2_1 + x_2_3 + x_2_4 + x_2_5 + x_2_6 + x_2_7 + x_2_8 + x_2_9
         = 1
 in_2: x_0_2 + x_1_2 + x_3_2 + x_4_2 + x_5_2 + x_6_2 + x_7_2 + x_8_2 + x_9_2 = 
       1
 out_3: x_3_0 + x_3_1 + x_3_2 + x_3_4 + x_3_5 + x_3_6 + x_3_7 + x_3_8 + x_3_9
         = 1
 in_3: x_0_3 + x_1_3 + x_2_3 + x_4_3 + x_5_3 + x_6_3 + x_7_3 + x_8_3 + x_9_3 = 
       1
 out_4: x_4_0 + x_4_1 + x_4_2 + x_4_3 + x_4_5 + x_4_6 + x_4_7 + x_4_8 + x_4_9
         = 1
 in_4: x_0_4 + x_1_4 + x_2_4 + x_3_4 + x_5_4 + x_6_4 + x_7_4 + x_8_4 + x_9_4 = 
       1
 out_5: x_5_0 + x_5_1 + x_5_2 + x_5_3 + x_5_4 + x_5_6 + x_5_7 + x_5_8 + x_5_9
         = 1
 in_5: x_0_5 + x_1_5 + x_2_5 + x_3_5 + x_4_5 + x_6_5 + x_7_5 + x_8_5 + x_9_5 = 
       1
 out_6: x_6_0 + x_6_1 + x_6_2 + x_6_3 + x_6_4 + x_6_5 + x_6_7 + x_6_8 + x_6_9
         = 1
 in_6: x_0_6 + x_1_6 + x_2_6 + x_3_6 + x_4_6 + x_5_6 + x_7_6 + x_8_6 + x_9_6 = 
       1
 out_7: x_7_0 + x_7_1 + x_7_2 + x_7_3 + x_7_4 + x_7_5 + x_7_6 + x_7_8 + x_7_9
         = 1
 in_7: x_0_7 + x_1_7 + x_2_7 + x_3_7 + x_4_7 + x_5_7 + x_6_7 + x_8_7 + x_9_7 = 
       1
 out_8: x_8_0 + x_8_1 + x_8_2 + x_8_3 + x_8_4 + x_8_5 + x_8_6 + x_8_7 + x_8_9
         = 1
 in_8: x_0_8 + x_1_8 + x_2_8 + x_3_8 + x_4_8 + x_5_8 + x_6_8 + x_7_8 + x_9_8 = 
       1
 out_9: x_9_0 + x_9_1 + x_9_2 + x_9_3 + x_9_4 + x_9_5 + x_9_6 + x_9_7 + x_9_8
         = 1
 in_9: x_0_9 + x_1_9 + x_2_9 + x_3_9 + x_4_9 + x_5_9 + x_6_9 + x_7_9 + x_8_9 = 
       1
 order_(0,_1): x_0_1 = 1 -> d_0 - d_1 = -1
 order_(0,_2): x_0_2 = 1 -> d_0 - d_2 = -1
 order_(0,_3): x_0_3 = 1 -> d_0 - d_3 = -1
 order_(0,_4): x_0_4 = 1 -> d_0 - d_4 = -1
 order_(0,_5): x_0_5 = 1 -> d_0 - d_5 = -1
 order_(0,_6): x_0_6 = 1 -> d_0 - d_6 = -1
 order_(0,_7): x_0_7 = 1 -> d_0 - d_7 = -1
 order_(0,_8): x_0_8 = 1 -> d_0 - d_8 = -1
 order_(0,_9): x_0_9 = 1 -> d_0 - d_9 = -1
 order_(1,_2): x_1_2 = 1 -> d_1 - d_2 = -1
 order_(1,_3): x_1_3 = 1 -> d_1 - d_3 = -1
 order_(1,_4): x_1_4 = 1 -> d_1 - d_4 = -1
 order_(1,_5): x_1_5 = 1 -> d_1 - d_5 = -1
 order_(1,_6): x_1_6 = 1 -> d_1 - d_6 = -1
 order_(1,_7): x_1_7 = 1 -> d_1 - d_7 = -1
 order_(1,_8): x_1_8 = 1 -> d_1 - d_8 = -1
 order_(1,_9): x_1_9 = 1 -> d_1 - d_9 = -1
 order_(2,_1): x_2_1 = 1 -> d_2 - d_1 = -1
 order_(2,_3): x_2_3 = 1 -> d_2 - d_3 = -1
 order_(2,_4): x_2_4 = 1 -> d_2 - d_4 = -1
 order_(2,_5): x_2_5 = 1 -> d_2 - d_5 = -1
 order_(2,_6): x_2_6 = 1 -> d_2 - d_6 = -1
 order_(2,_7): x_2_7 = 1 -> d_2 - d_7 = -1
 order_(2,_8): x_2_8 = 1 -> d_2 - d_8 = -1
 order_(2,_9): x_2_9 = 1 -> d_2 - d_9 = -1
 order_(3,_1): x_3_1 = 1 -> d_3 - d_1 = -1
 order_(3,_2): x_3_2 = 1 -> d_3 - d_2 = -1
 order_(3,_4): x_3_4 = 1 -> d_3 - d_4 = -1
 order_(3,_5): x_3_5 = 1 -> d_3 - d_5 = -1
 order_(3,_6): x_3_6 = 1 -> d_3 - d_6 = -1
 order_(3,_7): x_3_7 = 1 -> d_3 - d_7 = -1
 order_(3,_8): x_3_8 = 1 -> d_3 - d_8 = -1
 order_(3,_9): x_3_9 = 1 -> d_3 - d_9 = -1
 order_(4,_1): x_4_1 = 1 -> d_4 - d_1 = -1
 order_(4,_2): x_4_2 = 1 -> d_4 - d_2 = -1
 order_(4,_3): x_4_3 = 1 -> d_4 - d_3 = -1
 order_(4,_5): x_4_5 = 1 -> d_4 - d_5 = -1
 order_(4,_6): x_4_6 = 1 -> d_4 - d_6 = -1
 order_(4,_7): x_4_7 = 1 -> d_4 - d_7 = -1
 order_(4,_8): x_4_8 = 1 -> d_4 - d_8 = -1
 order_(4,_9): x_4_9 = 1 -> d_4 - d_9 = -1
 order_(5,_1): x_5_1 = 1 -> d_5 - d_1 = -1
 order_(5,_2): x_5_2 = 1 -> d_5 - d_2 = -1
 order_(5,_3): x_5_3 = 1 -> d_5 - d_3 = -1
 order_(5,_4): x_5_4 = 1 -> d_5 - d_4 = -1
 order_(5,_6): x_5_6 = 1 -> d_5 - d_6 = -1
 order_(5,_7): x_5_7 = 1 -> d_5 - d_7 = -1
 order_(5,_8): x_5_8 = 1 -> d_5 - d_8 = -1
 order_(5,_9): x_5_9 = 1 -> d_5 - d_9 = -1
 order_(6,_1): x_6_1 = 1 -> d_6 - d_1 = -1
 order_(6,_2): x_6_2 = 1 -> d_6 - d_2 = -1
 order_(6,_3): x_6_3 = 1 -> d_6 - d_3 = -1
 order_(6,_4): x_6_4 = 1 -> d_6 - d_4 = -1
 order_(6,_5): x_6_5 = 1 -> d_6 - d_5 = -1
 order_(6,_7): x_6_7 = 1 -> d_6 - d_7 = -1
 order_(6,_8): x_6_8 = 1 -> d_6 - d_8 = -1
 order_(6,_9): x_6_9 = 1 -> d_6 - d_9 = -1
 order_(7,_1): x_7_1 = 1 -> d_7 - d_1 = -1
 order_(7,_2): x_7_2 = 1 -> d_7 - d_2 = -1
 order_(7,_3): x_7_3 = 1 -> d_7 - d_3 = -1
 order_(7,_4): x_7_4 = 1 -> d_7 - d_4 = -1
 order_(7,_5): x_7_5 = 1 -> d_7 - d_5 = -1
 order_(7,_6): x_7_6 = 1 -> d_7 - d_6 = -1
 order_(7,_8): x_7_8 = 1 -> d_7 - d_8 = -1
 order_(7,_9): x_7_9 = 1 -> d_7 - d_9 = -1
 order_(8,_1): x_8_1 = 1 -> d_8 - d_1 = -1
 order_(8,_2): x_8_2 = 1 -> d_8 - d_2 = -1
 order_(8,_3): x_8_3 = 1 -> d_8 - d_3 = -1
 order_(8,_4): x_8_4 = 1 -> d_8 - d_4 = -1
 order_(8,_5): x_8_5 = 1 -> d_8 - d_5 = -1
 order_(8,_6): x_8_6 = 1 -> d_8 - d_6 = -1
 order_(8,_7): x_8_7 = 1 -> d_8 - d_7 = -1
 order_(8,_9): x_8_9 = 1 -> d_8 - d_9 = -1
 order_(9,_1): x_9_1 = 1 -> d_9 - d_1 = -1
 order_(9,_2): x_9_2 = 1 -> d_9 - d_2 = -1
 order_(9,_3): x_9_3 = 1 -> d_9 - d_3 = -1
 order_(9,_4): x_9_4 = 1 -> d_9 - d_4 = -1
 order_(9,_5): x_9_5 = 1 -> d_9 - d_5 = -1
 order_(9,_6): x_9_6 = 1 -> d_9 - d_6 = -1
 order_(9,_7): x_9_7 = 1 -> d_9 - d_7 = -1
 order_(9,_8): x_9_8 = 1 -> d_9 - d_8 = -1

Bounds
 0 <= x_0_1 <= 1
 0 <= x_0_2 <= 1
 0 <= x_0_3 <= 1
 0 <= x_0_4 <= 1
 0 <= x_0_5 <= 1
 0 <= x_0_6 <= 1
 0 <= x_0_7 <= 1
 0 <= x_0_8 <= 1
 0 <= x_0_9 <= 1
 0 <= x_1_0 <= 1
 0 <= x_1_2 <= 1
 0 <= x_1_3 <= 1
 0 <= x_1_4 <= 1
 0 <= x_1_5 <= 1
 0 <= x_1_6 <= 1
 0 <= x_1_7 <= 1
 0 <= x_1_8 <= 1
 0 <= x_1_9 <= 1
 0 <= x_2_0 <= 1
 0 <= x_2_1 <= 1
 0 <= x_2_3 <= 1
 0 <= x_2_4 <= 1
 0 <= x_2_5 <= 1
 0 <= x_2_6 <= 1
 0 <= x_2_7 <= 1
 0 <= x_2_8 <= 1
 0 <= x_2_9 <= 1
 0 <= x_3_0 <= 1
 0 <= x_3_1 <= 1
 0 <= x_3_2 <= 1
 0 <= x_3_4 <= 1
 0 <= x_3_5 <= 1
 0 <= x_3_6 <= 1
 0 <= x_3_7 <= 1
 0 <= x_3_8 <= 1
 0 <= x_3_9 <= 1
 0 <= x_4_0 <= 1
 0 <= x_4_1 <= 1
 0 <= x_4_2 <= 1
 0 <= x_4_3 <= 1
 0 <= x_4_5 <= 1
 0 <= x_4_6 <= 1
 0 <= x_4_7 <= 1
 0 <= x_4_8 <= 1
 0 <= x_4_9 <= 1
 0 <= x_5_0 <= 1
 0 <= x_5_1 <= 1
 0 <= x_5_2 <= 1
 0 <= x_5_3 <= 1
 0 <= x_5_4 <= 1
 0 <= x_5_6 <= 1
 0 <= x_5_7 <= 1
 0 <= x_5_8 <= 1
 0 <= x_5_9 <= 1
 0 <= x_6_0 <= 1
 0 <= x_6_1 <= 1
 0 <= x_6_2 <= 1
 0 <= x_6_3 <= 1
 0 <= x_6_4 <= 1
 0 <= x_6_5 <= 1
 0 <= x_6_7 <= 1
 0 <= x_6_8 <= 1
 0 <= x_6_9 <= 1
 0 <= x_7_0 <= 1
 0 <= x_7_1 <= 1
 0 <= x_7_2 <= 1
 0 <= x_7_3 <= 1
 0 <= x_7_4 <= 1
 0 <= x_7_5 <= 1
 0 <= x_7_6 <= 1
 0 <= x_7_8 <= 1
 0 <= x_7_9 <= 1
 0 <= x_8_0 <= 1
 0 <= x_8_1 <= 1
 0 <= x_8_2 <= 1
 0 <= x_8_3 <= 1
 0 <= x_8_4 <= 1
 0 <= x_8_5 <= 1
 0 <= x_8_6 <= 1
 0 <= x_8_7 <= 1
 0 <= x_8_9 <= 1
 0 <= x_9_0 <= 1
 0 <= x_9_1 <= 1
 0 <= x_9_2 <= 1
 0 <= x_9_3 <= 1
 0 <= x_9_4 <= 1
 0 <= x_9_5 <= 1
 0 <= x_9_6 <= 1
 0 <= x_9_7 <= 1
 0 <= x_9_8 <= 1

Binaries
 x_0_1 x_0_2 x_0_3 x_0_4 x_0_5 x_0_6 x_0_7 x_0_8 x_0_9 x_1_0 x_1_2 x_1_3 x_1_4
 x_1_5 x_1_6 x_1_7 x_1_8 x_1_9 x_2_0 x_2_1 x_2_3 x_2_4 x_2_5 x_2_6 x_2_7 x_2_8
 x_2_9 x_3_0 x_3_1 x_3_2 x_3_4 x_3_5 x_3_6 x_3_7 x_3_8 x_3_9 x_4_0 x_4_1 x_4_2
 x_4_3 x_4_5 x_4_6 x_4_7 x_4_8 x_4_9 x_5_0 x_5_1 x_5_2 x_5_3 x_5_4 x_5_6 x_5_7
 x_5_8 x_5_9 x_6_0 x_6_1 x_6_2 x_6_3 x_6_4 x_6_5 x_6_7 x_6_8 x_6_9 x_7_0 x_7_1
 x_7_2 x_7_3 x_7_4 x_7_5 x_7_6 x_7_8 x_7_9 x_8_0 x_8_1 x_8_2 x_8_3 x_8_4 x_8_5
 x_8_6 x_8_7 x_8_9 x_9_0 x_9_1 x_9_2 x_9_3 x_9_4 x_9_5 x_9_6 x_9_7 x_9_8
End
