\ This file has been generated by DOcplex
\ ENCODING=ISO-8859-1
\Problem name: TSP

Minimize
 obj: 24.847523205815 x_0_1 + 84.268476980515 x_0_2 + 48.637589757378 x_0_3
      + 91.283416052636 x_0_4 + 81.425757454072 x_0_5 + 35.269826295335 x_0_6
      + 3.102847460629 x_0_7 + 78.828962792985 x_0_8 + 71.040444873002 x_0_9
      + 24.847523205815 x_1_0 + 59.457259483817 x_1_2 + 28.479403359830 x_1_3
      + 73.111664474475 x_1_4 + 59.882296724762 x_1_5 + 15.741097665535 x_1_6
      + 24.275013178101 x_1_7 + 55.376684806744 x_1_8 + 46.514988288856 x_1_9
      + 84.268476980515 x_2_0 + 59.457259483817 x_2_1 + 47.662122528422 x_2_3
      + 52.889448446429 x_2_4 + 32.569425704346 x_2_5 + 52.660165475280 x_2_6
      + 83.701377144145 x_2_7 + 19.838256058266 x_2_8 + 14.763069034360 x_2_9
      + 48.637589757378 x_3_0 + 28.479403359830 x_3_1 + 47.662122528422 x_3_2
      + 81.994441819035 x_3_4 + 63.516360985153 x_3_5 + 36.867956924242 x_3_6
      + 46.695105977781 x_3_7 + 53.734644104048 x_3_8 + 40.604393199586 x_3_9
      + 91.283416052636 x_4_0 + 73.111664474475 x_4_1 + 52.889448446429 x_4_2
      + 81.994441819035 x_4_3 + 20.792454885995 x_4_5 + 57.789617242836 x_4_6
      + 92.550076436212 x_4_7 + 33.784304424201 x_4_8 + 46.244368991431 x_4_9
      + 81.425757454072 x_5_0 + 59.882296724762 x_5_1 + 32.569425704346 x_5_2
      + 63.516360985153 x_5_3 + 20.792454885995 x_5_4 + 46.201941123650 x_5_6
      + 82.075291665705 x_5_7 + 13.035852149668 x_5_8 + 25.641791608030 x_5_9
      + 35.269826295335 x_6_0 + 15.741097665535 x_6_1 + 52.660165475280 x_6_2
      + 36.867956924242 x_6_3 + 57.789617242836 x_6_4 + 46.201941123650 x_6_5
      + 35.876527518381 x_6_7 + 44.024490288696 x_6_8 + 38.242008723788 x_6_9
      + 3.102847460629 x_7_0 + 24.275013178101 x_7_1 + 83.701377144145 x_7_2
      + 46.695105977781 x_7_3 + 92.550076436212 x_7_4 + 82.075291665705 x_7_5
      + 35.876527518381 x_7_6 + 78.991247720404 x_7_8 + 70.744807853046 x_7_9
      + 78.828962792985 x_8_0 + 55.376684806744 x_8_1 + 19.838256058266 x_8_2
      + 53.734644104048 x_8_3 + 33.784304424201 x_8_4 + 13.035852149668 x_8_5
      + 44.024490288696 x_8_6 + 78.991247720404 x_8_7 + 13.645720590404 x_8_9
      + 71.040444873002 x_9_0 + 46.514988288856 x_9_1 + 14.763069034360 x_9_2
      + 40.604393199586 x_9_3 + 46.244368991431 x_9_4 + 25.641791608030 x_9_5
      + 38.242008723788 x_9_6 + 70.744807853046 x_9_7 + 13.645720590404 x_9_8
Subject To
 out_0: x_0_1 + x_0_2 + x_0_3 + x_0_4 + x_0_5 + x_0_6 + x_0_7 + x_0_8 + x_0_9
         = 1
 in_0: x_1_0 + x_2_0 + x_3_0 + x_4_0 + x_5_0 + x_6_0 + x_7_0 + x_8_0 + x_9_0 = 
       1
 out_1: x_1_0 + x_1_2 + x_1_3 + x_1_4 + x_1_5 + x_1_6 + x_1_7 + x_1_8 + x_1_9
         = 1
 in_1: x_0_1 + x_2_1 + x_3_1 + x_4_1 + x_5_1 + x_6_1 + x_7_1 + x_8_1 + x_9_1 = 
       1
 out_2: x_2_0 + x_2_1 + x_2_3 + x_2_4 + x_2_5 + x_2_6 + x_2_7 + x_2_8 + x_2_9
         = 1
 in_2: x_0_2 + x_1_2 + x_3_2 + x_4_2 + x_5_2 + x_6_2 + x_7_2 + x_8_2 + x_9_2 = 
       1
 out_3: x_3_0 + x_3_1 + x_3_2 + x_3_4 + x_3_5 + x_3_6 + x_3_7 + x_3_8 + x_3_9
         = 1
 in_3: x_0_3 + x_1_3 + x_2_3 + x_4_3 + x_5_3 + x_6_3 + x_7_3 + x_8_3 + x_9_3 = 
       1
 out_4: x_4_0 + x_4_1 + x_4_2 + x_4_3 + x_4_5 + x_4_6 + x_4_7 + x_4_8 + x_4_9
         = 1
 in_4: x_0_4 + x_1_4 + x_2_4 + x_3_4 + x_5_4 + x_6_4 + x_7_4 + x_8_4 + x_9_4 = 
       1
 out_5: x_5_0 + x_5_1 + x_5_2 + x_5_3 + x_5_4 + x_5_6 + x_5_7 + x_5_8 + x_5_9
         = 1
 in_5: x_0_5 + x_1_5 + x_2_5 + x_3_5 + x_4_5 + x_6_5 + x_7_5 + x_8_5 + x_9_5 = 
       1
 out_6: x_6_0 + x_6_1 + x_6_2 + x_6_3 + x_6_4 + x_6_5 + x_6_7 + x_6_8 + x_6_9
         = 1
 in_6: x_0_6 + x_1_6 + x_2_6 + x_3_6 + x_4_6 + x_5_6 + x_7_6 + x_8_6 + x_9_6 = 
       1
 out_7: x_7_0 + x_7_1 + x_7_2 + x_7_3 + x_7_4 + x_7_5 + x_7_6 + x_7_8 + x_7_9
         = 1
 in_7: x_0_7 + x_1_7 + x_2_7 + x_3_7 + x_4_7 + x_5_7 + x_6_7 + x_8_7 + x_9_7 = 
       1
 out_8: x_8_0 + x_8_1 + x_8_2 + x_8_3 + x_8_4 + x_8_5 + x_8_6 + x_8_7 + x_8_9
         = 1
 in_8: x_0_8 + x_1_8 + x_2_8 + x_3_8 + x_4_8 + x_5_8 + x_6_8 + x_7_8 + x_9_8 = 
       1
 out_9: x_9_0 + x_9_1 + x_9_2 + x_9_3 + x_9_4 + x_9_5 + x_9_6 + x_9_7 + x_9_8
         = 1
 in_9: x_0_9 + x_1_9 + x_2_9 + x_3_9 + x_4_9 + x_5_9 + x_6_9 + x_7_9 + x_8_9 = 
       1
 order_(0,_1): x_0_1 = 1 -> d_0 - d_1 = -1
 order_(0,_2): x_0_2 = 1 -> d_0 - d_2 = -1
 order_(0,_3): x_0_3 = 1 -> d_0 - d_3 = -1
 order_(0,_4): x_0_4 = 1 -> d_0 - d_4 = -1
 order_(0,_5): x_0_5 = 1 -> d_0 - d_5 = -1
 order_(0,_6): x_0_6 = 1 -> d_0 - d_6 = -1
 order_(0,_7): x_0_7 = 1 -> d_0 - d_7 = -1
 order_(0,_8): x_0_8 = 1 -> d_0 - d_8 = -1
 order_(0,_9): x_0_9 = 1 -> d_0 - d_9 = -1
 order_(1,_2): x_1_2 = 1 -> d_1 - d_2 = -1
 order_(1,_3): x_1_3 = 1 -> d_1 - d_3 = -1
 order_(1,_4): x_1_4 = 1 -> d_1 - d_4 = -1
 order_(1,_5): x_1_5 = 1 -> d_1 - d_5 = -1
 order_(1,_6): x_1_6 = 1 -> d_1 - d_6 = -1
 order_(1,_7): x_1_7 = 1 -> d_1 - d_7 = -1
 order_(1,_8): x_1_8 = 1 -> d_1 - d_8 = -1
 order_(1,_9): x_1_9 = 1 -> d_1 - d_9 = -1
 order_(2,_1): x_2_1 = 1 -> d_2 - d_1 = -1
 order_(2,_3): x_2_3 = 1 -> d_2 - d_3 = -1
 order_(2,_4): x_2_4 = 1 -> d_2 - d_4 = -1
 order_(2,_5): x_2_5 = 1 -> d_2 - d_5 = -1
 order_(2,_6): x_2_6 = 1 -> d_2 - d_6 = -1
 order_(2,_7): x_2_7 = 1 -> d_2 - d_7 = -1
 order_(2,_8): x_2_8 = 1 -> d_2 - d_8 = -1
 order_(2,_9): x_2_9 = 1 -> d_2 - d_9 = -1
 order_(3,_1): x_3_1 = 1 -> d_3 - d_1 = -1
 order_(3,_2): x_3_2 = 1 -> d_3 - d_2 = -1
 order_(3,_4): x_3_4 = 1 -> d_3 - d_4 = -1
 order_(3,_5): x_3_5 = 1 -> d_3 - d_5 = -1
 order_(3,_6): x_3_6 = 1 -> d_3 - d_6 = -1
 order_(3,_7): x_3_7 = 1 -> d_3 - d_7 = -1
 order_(3,_8): x_3_8 = 1 -> d_3 - d_8 = -1
 order_(3,_9): x_3_9 = 1 -> d_3 - d_9 = -1
 order_(4,_1): x_4_1 = 1 -> d_4 - d_1 = -1
 order_(4,_2): x_4_2 = 1 -> d_4 - d_2 = -1
 order_(4,_3): x_4_3 = 1 -> d_4 - d_3 = -1
 order_(4,_5): x_4_5 = 1 -> d_4 - d_5 = -1
 order_(4,_6): x_4_6 = 1 -> d_4 - d_6 = -1
 order_(4,_7): x_4_7 = 1 -> d_4 - d_7 = -1
 order_(4,_8): x_4_8 = 1 -> d_4 - d_8 = -1
 order_(4,_9): x_4_9 = 1 -> d_4 - d_9 = -1
 order_(5,_1): x_5_1 = 1 -> d_5 - d_1 = -1
 order_(5,_2): x_5_2 = 1 -> d_5 - d_2 = -1
 order_(5,_3): x_5_3 = 1 -> d_5 - d_3 = -1
 order_(5,_4): x_5_4 = 1 -> d_5 - d_4 = -1
 order_(5,_6): x_5_6 = 1 -> d_5 - d_6 = -1
 order_(5,_7): x_5_7 = 1 -> d_5 - d_7 = -1
 order_(5,_8): x_5_8 = 1 -> d_5 - d_8 = -1
 order_(5,_9): x_5_9 = 1 -> d_5 - d_9 = -1
 order_(6,_1): x_6_1 = 1 -> d_6 - d_1 = -1
 order_(6,_2): x_6_2 = 1 -> d_6 - d_2 = -1
 order_(6,_3): x_6_3 = 1 -> d_6 - d_3 = -1
 order_(6,_4): x_6_4 = 1 -> d_6 - d_4 = -1
 order_(6,_5): x_6_5 = 1 -> d_6 - d_5 = -1
 order_(6,_7): x_6_7 = 1 -> d_6 - d_7 = -1
 order_(6,_8): x_6_8 = 1 -> d_6 - d_8 = -1
 order_(6,_9): x_6_9 = 1 -> d_6 - d_9 = -1
 order_(7,_1): x_7_1 = 1 -> d_7 - d_1 = -1
 order_(7,_2): x_7_2 = 1 -> d_7 - d_2 = -1
 order_(7,_3): x_7_3 = 1 -> d_7 - d_3 = -1
 order_(7,_4): x_7_4 = 1 -> d_7 - d_4 = -1
 order_(7,_5): x_7_5 = 1 -> d_7 - d_5 = -1
 order_(7,_6): x_7_6 = 1 -> d_7 - d_6 = -1
 order_(7,_8): x_7_8 = 1 -> d_7 - d_8 = -1
 order_(7,_9): x_7_9 = 1 -> d_7 - d_9 = -1
 order_(8,_1): x_8_1 = 1 -> d_8 - d_1 = -1
 order_(8,_2): x_8_2 = 1 -> d_8 - d_2 = -1
 order_(8,_3): x_8_3 = 1 -> d_8 - d_3 = -1
 order_(8,_4): x_8_4 = 1 -> d_8 - d_4 = -1
 order_(8,_5): x_8_5 = 1 -> d_8 - d_5 = -1
 order_(8,_6): x_8_6 = 1 -> d_8 - d_6 = -1
 order_(8,_7): x_8_7 = 1 -> d_8 - d_7 = -1
 order_(8,_9): x_8_9 = 1 -> d_8 - d_9 = -1
 order_(9,_1): x_9_1 = 1 -> d_9 - d_1 = -1
 order_(9,_2): x_9_2 = 1 -> d_9 - d_2 = -1
 order_(9,_3): x_9_3 = 1 -> d_9 - d_3 = -1
 order_(9,_4): x_9_4 = 1 -> d_9 - d_4 = -1
 order_(9,_5): x_9_5 = 1 -> d_9 - d_5 = -1
 order_(9,_6): x_9_6 = 1 -> d_9 - d_6 = -1
 order_(9,_7): x_9_7 = 1 -> d_9 - d_7 = -1
 order_(9,_8): x_9_8 = 1 -> d_9 - d_8 = -1

Bounds
 0 <= x_0_1 <= 1
 0 <= x_0_2 <= 1
 0 <= x_0_3 <= 1
 0 <= x_0_4 <= 1
 0 <= x_0_5 <= 1
 0 <= x_0_6 <= 1
 0 <= x_0_7 <= 1
 0 <= x_0_8 <= 1
 0 <= x_0_9 <= 1
 0 <= x_1_0 <= 1
 0 <= x_1_2 <= 1
 0 <= x_1_3 <= 1
 0 <= x_1_4 <= 1
 0 <= x_1_5 <= 1
 0 <= x_1_6 <= 1
 0 <= x_1_7 <= 1
 0 <= x_1_8 <= 1
 0 <= x_1_9 <= 1
 0 <= x_2_0 <= 1
 0 <= x_2_1 <= 1
 0 <= x_2_3 <= 1
 0 <= x_2_4 <= 1
 0 <= x_2_5 <= 1
 0 <= x_2_6 <= 1
 0 <= x_2_7 <= 1
 0 <= x_2_8 <= 1
 0 <= x_2_9 <= 1
 0 <= x_3_0 <= 1
 0 <= x_3_1 <= 1
 0 <= x_3_2 <= 1
 0 <= x_3_4 <= 1
 0 <= x_3_5 <= 1
 0 <= x_3_6 <= 1
 0 <= x_3_7 <= 1
 0 <= x_3_8 <= 1
 0 <= x_3_9 <= 1
 0 <= x_4_0 <= 1
 0 <= x_4_1 <= 1
 0 <= x_4_2 <= 1
 0 <= x_4_3 <= 1
 0 <= x_4_5 <= 1
 0 <= x_4_6 <= 1
 0 <= x_4_7 <= 1
 0 <= x_4_8 <= 1
 0 <= x_4_9 <= 1
 0 <= x_5_0 <= 1
 0 <= x_5_1 <= 1
 0 <= x_5_2 <= 1
 0 <= x_5_3 <= 1
 0 <= x_5_4 <= 1
 0 <= x_5_6 <= 1
 0 <= x_5_7 <= 1
 0 <= x_5_8 <= 1
 0 <= x_5_9 <= 1
 0 <= x_6_0 <= 1
 0 <= x_6_1 <= 1
 0 <= x_6_2 <= 1
 0 <= x_6_3 <= 1
 0 <= x_6_4 <= 1
 0 <= x_6_5 <= 1
 0 <= x_6_7 <= 1
 0 <= x_6_8 <= 1
 0 <= x_6_9 <= 1
 0 <= x_7_0 <= 1
 0 <= x_7_1 <= 1
 0 <= x_7_2 <= 1
 0 <= x_7_3 <= 1
 0 <= x_7_4 <= 1
 0 <= x_7_5 <= 1
 0 <= x_7_6 <= 1
 0 <= x_7_8 <= 1
 0 <= x_7_9 <= 1
 0 <= x_8_0 <= 1
 0 <= x_8_1 <= 1
 0 <= x_8_2 <= 1
 0 <= x_8_3 <= 1
 0 <= x_8_4 <= 1
 0 <= x_8_5 <= 1
 0 <= x_8_6 <= 1
 0 <= x_8_7 <= 1
 0 <= x_8_9 <= 1
 0 <= x_9_0 <= 1
 0 <= x_9_1 <= 1
 0 <= x_9_2 <= 1
 0 <= x_9_3 <= 1
 0 <= x_9_4 <= 1
 0 <= x_9_5 <= 1
 0 <= x_9_6 <= 1
 0 <= x_9_7 <= 1
 0 <= x_9_8 <= 1

Binaries
 x_0_1 x_0_2 x_0_3 x_0_4 x_0_5 x_0_6 x_0_7 x_0_8 x_0_9 x_1_0 x_1_2 x_1_3 x_1_4
 x_1_5 x_1_6 x_1_7 x_1_8 x_1_9 x_2_0 x_2_1 x_2_3 x_2_4 x_2_5 x_2_6 x_2_7 x_2_8
 x_2_9 x_3_0 x_3_1 x_3_2 x_3_4 x_3_5 x_3_6 x_3_7 x_3_8 x_3_9 x_4_0 x_4_1 x_4_2
 x_4_3 x_4_5 x_4_6 x_4_7 x_4_8 x_4_9 x_5_0 x_5_1 x_5_2 x_5_3 x_5_4 x_5_6 x_5_7
 x_5_8 x_5_9 x_6_0 x_6_1 x_6_2 x_6_3 x_6_4 x_6_5 x_6_7 x_6_8 x_6_9 x_7_0 x_7_1
 x_7_2 x_7_3 x_7_4 x_7_5 x_7_6 x_7_8 x_7_9 x_8_0 x_8_1 x_8_2 x_8_3 x_8_4 x_8_5
 x_8_6 x_8_7 x_8_9 x_9_0 x_9_1 x_9_2 x_9_3 x_9_4 x_9_5 x_9_6 x_9_7 x_9_8
End
