\ This file has been generated by DOcplex
\ ENCODING=ISO-8859-1
\Problem name: TSP

Minimize
 obj: 87.895788094036 x_0_1 + 104.867934818170 x_0_2 + 56.410371569347 x_0_3
      + 83.266363970584 x_0_4 + 64.518301349519 x_0_5 + 115.854517250147 x_0_6
      + 76.753823811895 x_0_7 + 99.466651742115 x_0_8 + 54.115765287182 x_0_9
      + 87.895788094036 x_1_0 + 65.492205235913 x_1_2 + 34.336700849533 x_1_3
      + 20.781489168282 x_1_4 + 42.828405267363 x_1_5 + 87.626011229192 x_1_6
      + 82.935982480795 x_1_7 + 70.725653494827 x_1_8 + 79.921373678328 x_1_9
      + 104.867934818170 x_2_0 + 65.492205235913 x_2_1 + 60.549385355174 x_2_3
      + 45.671171044803 x_2_4 + 43.268912001533 x_2_5 + 22.345446437875 x_2_6
      + 43.793188608955 x_2_7 + 10.951853121629 x_2_8 + 60.245107565252 x_2_9
      + 56.410371569347 x_3_0 + 34.336700849533 x_3_1 + 60.549385355174 x_3_2
      + 27.013510518609 x_3_4 + 19.026906687433 x_3_5 + 78.898860709320 x_3_6
      + 58.118955847226 x_3_7 + 60.225315396232 x_3_8 + 48.656959798019 x_3_9
      + 83.266363970584 x_4_0 + 20.781489168282 x_4_1 + 45.671171044803 x_4_2
      + 27.013510518609 x_4_3 + 25.868978669672 x_4_5 + 67.455769211471 x_4_6
      + 63.371231743258 x_4_7 + 50.127393844556 x_4_8 + 63.553612549193 x_4_9
      + 64.518301349519 x_5_0 + 42.828405267363 x_5_1 + 43.268912001533 x_5_2
      + 19.026906687433 x_5_3 + 25.868978669672 x_5_4 + 60.256772239321 x_5_6
      + 41.206821902293 x_5_7 + 41.640140751409 x_5_8 + 37.766830342243 x_5_9
      + 115.854517250147 x_6_0 + 87.626011229192 x_6_1 + 22.345446437875 x_6_2
      + 78.898860709320 x_6_3 + 67.455769211471 x_6_4 + 60.256772239321 x_6_5
      + 43.386447477847 x_6_7 + 18.674872636484 x_6_8 + 65.001719848636 x_6_9
      + 76.753823811895 x_7_0 + 82.935982480795 x_7_1 + 43.793188608955 x_7_2
      + 58.118955847226 x_7_3 + 63.371231743258 x_7_4 + 41.206821902293 x_7_5
      + 43.386447477847 x_7_6 + 33.525100774455 x_7_8 + 22.942630386691 x_7_9
      + 99.466651742115 x_8_0 + 70.725653494827 x_8_1 + 10.951853121629 x_8_2
      + 60.225315396232 x_8_3 + 50.127393844556 x_8_4 + 41.640140751409 x_8_5
      + 18.674872636484 x_8_6 + 33.525100774455 x_8_7 + 51.734995218985 x_8_9
      + 54.115765287182 x_9_0 + 79.921373678328 x_9_1 + 60.245107565252 x_9_2
      + 48.656959798019 x_9_3 + 63.553612549193 x_9_4 + 37.766830342243 x_9_5
      + 65.001719848636 x_9_6 + 22.942630386691 x_9_7 + 51.734995218985 x_9_8
Subject To
 out_0: x_0_1 + x_0_2 + x_0_3 + x_0_4 + x_0_5 + x_0_6 + x_0_7 + x_0_8 + x_0_9
         = 1
 in_0: x_1_0 + x_2_0 + x_3_0 + x_4_0 + x_5_0 + x_6_0 + x_7_0 + x_8_0 + x_9_0 = 
       1
 out_1: x_1_0 + x_1_2 + x_1_3 + x_1_4 + x_1_5 + x_1_6 + x_1_7 + x_1_8 + x_1_9
         = 1
 in_1: x_0_1 + x_2_1 + x_3_1 + x_4_1 + x_5_1 + x_6_1 + x_7_1 + x_8_1 + x_9_1 = 
       1
 out_2: x_2_0 + x_2_1 + x_2_3 + x_2_4 + x_2_5 + x_2_6 + x_2_7 + x_2_8 + x_2_9
         = 1
 in_2: x_0_2 + x_1_2 + x_3_2 + x_4_2 + x_5_2 + x_6_2 + x_7_2 + x_8_2 + x_9_2 = 
       1
 out_3: x_3_0 + x_3_1 + x_3_2 + x_3_4 + x_3_5 + x_3_6 + x_3_7 + x_3_8 + x_3_9
         = 1
 in_3: x_0_3 + x_1_3 + x_2_3 + x_4_3 + x_5_3 + x_6_3 + x_7_3 + x_8_3 + x_9_3 = 
       1
 out_4: x_4_0 + x_4_1 + x_4_2 + x_4_3 + x_4_5 + x_4_6 + x_4_7 + x_4_8 + x_4_9
         = 1
 in_4: x_0_4 + x_1_4 + x_2_4 + x_3_4 + x_5_4 + x_6_4 + x_7_4 + x_8_4 + x_9_4 = 
       1
 out_5: x_5_0 + x_5_1 + x_5_2 + x_5_3 + x_5_4 + x_5_6 + x_5_7 + x_5_8 + x_5_9
         = 1
 in_5: x_0_5 + x_1_5 + x_2_5 + x_3_5 + x_4_5 + x_6_5 + x_7_5 + x_8_5 + x_9_5 = 
       1
 out_6: x_6_0 + x_6_1 + x_6_2 + x_6_3 + x_6_4 + x_6_5 + x_6_7 + x_6_8 + x_6_9
         = 1
 in_6: x_0_6 + x_1_6 + x_2_6 + x_3_6 + x_4_6 + x_5_6 + x_7_6 + x_8_6 + x_9_6 = 
       1
 out_7: x_7_0 + x_7_1 + x_7_2 + x_7_3 + x_7_4 + x_7_5 + x_7_6 + x_7_8 + x_7_9
         = 1
 in_7: x_0_7 + x_1_7 + x_2_7 + x_3_7 + x_4_7 + x_5_7 + x_6_7 + x_8_7 + x_9_7 = 
       1
 out_8: x_8_0 + x_8_1 + x_8_2 + x_8_3 + x_8_4 + x_8_5 + x_8_6 + x_8_7 + x_8_9
         = 1
 in_8: x_0_8 + x_1_8 + x_2_8 + x_3_8 + x_4_8 + x_5_8 + x_6_8 + x_7_8 + x_9_8 = 
       1
 out_9: x_9_0 + x_9_1 + x_9_2 + x_9_3 + x_9_4 + x_9_5 + x_9_6 + x_9_7 + x_9_8
         = 1
 in_9: x_0_9 + x_1_9 + x_2_9 + x_3_9 + x_4_9 + x_5_9 + x_6_9 + x_7_9 + x_8_9 = 
       1
 order_(0,_1): x_0_1 = 1 -> d_0 - d_1 = -1
 order_(0,_2): x_0_2 = 1 -> d_0 - d_2 = -1
 order_(0,_3): x_0_3 = 1 -> d_0 - d_3 = -1
 order_(0,_4): x_0_4 = 1 -> d_0 - d_4 = -1
 order_(0,_5): x_0_5 = 1 -> d_0 - d_5 = -1
 order_(0,_6): x_0_6 = 1 -> d_0 - d_6 = -1
 order_(0,_7): x_0_7 = 1 -> d_0 - d_7 = -1
 order_(0,_8): x_0_8 = 1 -> d_0 - d_8 = -1
 order_(0,_9): x_0_9 = 1 -> d_0 - d_9 = -1
 order_(1,_2): x_1_2 = 1 -> d_1 - d_2 = -1
 order_(1,_3): x_1_3 = 1 -> d_1 - d_3 = -1
 order_(1,_4): x_1_4 = 1 -> d_1 - d_4 = -1
 order_(1,_5): x_1_5 = 1 -> d_1 - d_5 = -1
 order_(1,_6): x_1_6 = 1 -> d_1 - d_6 = -1
 order_(1,_7): x_1_7 = 1 -> d_1 - d_7 = -1
 order_(1,_8): x_1_8 = 1 -> d_1 - d_8 = -1
 order_(1,_9): x_1_9 = 1 -> d_1 - d_9 = -1
 order_(2,_1): x_2_1 = 1 -> d_2 - d_1 = -1
 order_(2,_3): x_2_3 = 1 -> d_2 - d_3 = -1
 order_(2,_4): x_2_4 = 1 -> d_2 - d_4 = -1
 order_(2,_5): x_2_5 = 1 -> d_2 - d_5 = -1
 order_(2,_6): x_2_6 = 1 -> d_2 - d_6 = -1
 order_(2,_7): x_2_7 = 1 -> d_2 - d_7 = -1
 order_(2,_8): x_2_8 = 1 -> d_2 - d_8 = -1
 order_(2,_9): x_2_9 = 1 -> d_2 - d_9 = -1
 order_(3,_1): x_3_1 = 1 -> d_3 - d_1 = -1
 order_(3,_2): x_3_2 = 1 -> d_3 - d_2 = -1
 order_(3,_4): x_3_4 = 1 -> d_3 - d_4 = -1
 order_(3,_5): x_3_5 = 1 -> d_3 - d_5 = -1
 order_(3,_6): x_3_6 = 1 -> d_3 - d_6 = -1
 order_(3,_7): x_3_7 = 1 -> d_3 - d_7 = -1
 order_(3,_8): x_3_8 = 1 -> d_3 - d_8 = -1
 order_(3,_9): x_3_9 = 1 -> d_3 - d_9 = -1
 order_(4,_1): x_4_1 = 1 -> d_4 - d_1 = -1
 order_(4,_2): x_4_2 = 1 -> d_4 - d_2 = -1
 order_(4,_3): x_4_3 = 1 -> d_4 - d_3 = -1
 order_(4,_5): x_4_5 = 1 -> d_4 - d_5 = -1
 order_(4,_6): x_4_6 = 1 -> d_4 - d_6 = -1
 order_(4,_7): x_4_7 = 1 -> d_4 - d_7 = -1
 order_(4,_8): x_4_8 = 1 -> d_4 - d_8 = -1
 order_(4,_9): x_4_9 = 1 -> d_4 - d_9 = -1
 order_(5,_1): x_5_1 = 1 -> d_5 - d_1 = -1
 order_(5,_2): x_5_2 = 1 -> d_5 - d_2 = -1
 order_(5,_3): x_5_3 = 1 -> d_5 - d_3 = -1
 order_(5,_4): x_5_4 = 1 -> d_5 - d_4 = -1
 order_(5,_6): x_5_6 = 1 -> d_5 - d_6 = -1
 order_(5,_7): x_5_7 = 1 -> d_5 - d_7 = -1
 order_(5,_8): x_5_8 = 1 -> d_5 - d_8 = -1
 order_(5,_9): x_5_9 = 1 -> d_5 - d_9 = -1
 order_(6,_1): x_6_1 = 1 -> d_6 - d_1 = -1
 order_(6,_2): x_6_2 = 1 -> d_6 - d_2 = -1
 order_(6,_3): x_6_3 = 1 -> d_6 - d_3 = -1
 order_(6,_4): x_6_4 = 1 -> d_6 - d_4 = -1
 order_(6,_5): x_6_5 = 1 -> d_6 - d_5 = -1
 order_(6,_7): x_6_7 = 1 -> d_6 - d_7 = -1
 order_(6,_8): x_6_8 = 1 -> d_6 - d_8 = -1
 order_(6,_9): x_6_9 = 1 -> d_6 - d_9 = -1
 order_(7,_1): x_7_1 = 1 -> d_7 - d_1 = -1
 order_(7,_2): x_7_2 = 1 -> d_7 - d_2 = -1
 order_(7,_3): x_7_3 = 1 -> d_7 - d_3 = -1
 order_(7,_4): x_7_4 = 1 -> d_7 - d_4 = -1
 order_(7,_5): x_7_5 = 1 -> d_7 - d_5 = -1
 order_(7,_6): x_7_6 = 1 -> d_7 - d_6 = -1
 order_(7,_8): x_7_8 = 1 -> d_7 - d_8 = -1
 order_(7,_9): x_7_9 = 1 -> d_7 - d_9 = -1
 order_(8,_1): x_8_1 = 1 -> d_8 - d_1 = -1
 order_(8,_2): x_8_2 = 1 -> d_8 - d_2 = -1
 order_(8,_3): x_8_3 = 1 -> d_8 - d_3 = -1
 order_(8,_4): x_8_4 = 1 -> d_8 - d_4 = -1
 order_(8,_5): x_8_5 = 1 -> d_8 - d_5 = -1
 order_(8,_6): x_8_6 = 1 -> d_8 - d_6 = -1
 order_(8,_7): x_8_7 = 1 -> d_8 - d_7 = -1
 order_(8,_9): x_8_9 = 1 -> d_8 - d_9 = -1
 order_(9,_1): x_9_1 = 1 -> d_9 - d_1 = -1
 order_(9,_2): x_9_2 = 1 -> d_9 - d_2 = -1
 order_(9,_3): x_9_3 = 1 -> d_9 - d_3 = -1
 order_(9,_4): x_9_4 = 1 -> d_9 - d_4 = -1
 order_(9,_5): x_9_5 = 1 -> d_9 - d_5 = -1
 order_(9,_6): x_9_6 = 1 -> d_9 - d_6 = -1
 order_(9,_7): x_9_7 = 1 -> d_9 - d_7 = -1
 order_(9,_8): x_9_8 = 1 -> d_9 - d_8 = -1

Bounds
 0 <= x_0_1 <= 1
 0 <= x_0_2 <= 1
 0 <= x_0_3 <= 1
 0 <= x_0_4 <= 1
 0 <= x_0_5 <= 1
 0 <= x_0_6 <= 1
 0 <= x_0_7 <= 1
 0 <= x_0_8 <= 1
 0 <= x_0_9 <= 1
 0 <= x_1_0 <= 1
 0 <= x_1_2 <= 1
 0 <= x_1_3 <= 1
 0 <= x_1_4 <= 1
 0 <= x_1_5 <= 1
 0 <= x_1_6 <= 1
 0 <= x_1_7 <= 1
 0 <= x_1_8 <= 1
 0 <= x_1_9 <= 1
 0 <= x_2_0 <= 1
 0 <= x_2_1 <= 1
 0 <= x_2_3 <= 1
 0 <= x_2_4 <= 1
 0 <= x_2_5 <= 1
 0 <= x_2_6 <= 1
 0 <= x_2_7 <= 1
 0 <= x_2_8 <= 1
 0 <= x_2_9 <= 1
 0 <= x_3_0 <= 1
 0 <= x_3_1 <= 1
 0 <= x_3_2 <= 1
 0 <= x_3_4 <= 1
 0 <= x_3_5 <= 1
 0 <= x_3_6 <= 1
 0 <= x_3_7 <= 1
 0 <= x_3_8 <= 1
 0 <= x_3_9 <= 1
 0 <= x_4_0 <= 1
 0 <= x_4_1 <= 1
 0 <= x_4_2 <= 1
 0 <= x_4_3 <= 1
 0 <= x_4_5 <= 1
 0 <= x_4_6 <= 1
 0 <= x_4_7 <= 1
 0 <= x_4_8 <= 1
 0 <= x_4_9 <= 1
 0 <= x_5_0 <= 1
 0 <= x_5_1 <= 1
 0 <= x_5_2 <= 1
 0 <= x_5_3 <= 1
 0 <= x_5_4 <= 1
 0 <= x_5_6 <= 1
 0 <= x_5_7 <= 1
 0 <= x_5_8 <= 1
 0 <= x_5_9 <= 1
 0 <= x_6_0 <= 1
 0 <= x_6_1 <= 1
 0 <= x_6_2 <= 1
 0 <= x_6_3 <= 1
 0 <= x_6_4 <= 1
 0 <= x_6_5 <= 1
 0 <= x_6_7 <= 1
 0 <= x_6_8 <= 1
 0 <= x_6_9 <= 1
 0 <= x_7_0 <= 1
 0 <= x_7_1 <= 1
 0 <= x_7_2 <= 1
 0 <= x_7_3 <= 1
 0 <= x_7_4 <= 1
 0 <= x_7_5 <= 1
 0 <= x_7_6 <= 1
 0 <= x_7_8 <= 1
 0 <= x_7_9 <= 1
 0 <= x_8_0 <= 1
 0 <= x_8_1 <= 1
 0 <= x_8_2 <= 1
 0 <= x_8_3 <= 1
 0 <= x_8_4 <= 1
 0 <= x_8_5 <= 1
 0 <= x_8_6 <= 1
 0 <= x_8_7 <= 1
 0 <= x_8_9 <= 1
 0 <= x_9_0 <= 1
 0 <= x_9_1 <= 1
 0 <= x_9_2 <= 1
 0 <= x_9_3 <= 1
 0 <= x_9_4 <= 1
 0 <= x_9_5 <= 1
 0 <= x_9_6 <= 1
 0 <= x_9_7 <= 1
 0 <= x_9_8 <= 1

Binaries
 x_0_1 x_0_2 x_0_3 x_0_4 x_0_5 x_0_6 x_0_7 x_0_8 x_0_9 x_1_0 x_1_2 x_1_3 x_1_4
 x_1_5 x_1_6 x_1_7 x_1_8 x_1_9 x_2_0 x_2_1 x_2_3 x_2_4 x_2_5 x_2_6 x_2_7 x_2_8
 x_2_9 x_3_0 x_3_1 x_3_2 x_3_4 x_3_5 x_3_6 x_3_7 x_3_8 x_3_9 x_4_0 x_4_1 x_4_2
 x_4_3 x_4_5 x_4_6 x_4_7 x_4_8 x_4_9 x_5_0 x_5_1 x_5_2 x_5_3 x_5_4 x_5_6 x_5_7
 x_5_8 x_5_9 x_6_0 x_6_1 x_6_2 x_6_3 x_6_4 x_6_5 x_6_7 x_6_8 x_6_9 x_7_0 x_7_1
 x_7_2 x_7_3 x_7_4 x_7_5 x_7_6 x_7_8 x_7_9 x_8_0 x_8_1 x_8_2 x_8_3 x_8_4 x_8_5
 x_8_6 x_8_7 x_8_9 x_9_0 x_9_1 x_9_2 x_9_3 x_9_4 x_9_5 x_9_6 x_9_7 x_9_8
End
